; arq :: corpus-study/repo_src/arq/arq/worker.py :: wait_for at _wait_for_tasks_to_complete:815 :: naive encoding (verdict: unsat)
; Generated by snf-pipeline (encoder.py) -- run with any
; SMT-LIB2-compliant solver, e.g. `z3 arq__corpus-study_repo_src_arq_arq_worker.py__waitfor__wait_for_tasks_to_complete_L815__naive.smt2`
; benchmark generated from python API
(set-info :status unknown)
(declare-fun timeout_fires () Bool)
(declare-fun cleanup_ran () Bool)
(assert
 (= timeout_fires false))
(assert
 (let (($x27 (not cleanup_ran)))
(and timeout_fires $x27)))
(check-sat)
